(set-logic ALL)
(set-option :produce-models true)
(declare-sort BoundSet 0)
(declare-sort UnboundSet 0)
(set-option :finite-model-find true)
(declare-fun CauseCancer (BoundSet) Bool)
(declare-fun VoteFor (BoundSet) Bool)
(declare-fun TearsDown (BoundSet) Bool)
(declare-fun Replaces (BoundSet BoundSet) Bool)
(assert (not (=> (exists ((a BoundSet)) (CauseCancer a)) (exists ((e BoundSet)) (exists ((c BoundSet)) (exists ((d BoundSet)) (and (VoteFor c) (and (TearsDown d) (Replaces d e)))))))))
(check-sat)
(get-model)